# This file is part of QOBLIB - Quantum Optimization Benchmarking Library
# Licensed under the Creative Commons Attribution 4.0 International License.
# You may obtain a copy of the License at
# 
#     https://creativecommons.org/licenses/by/4.0/
# 
# You are free to share and adapt the material for any purpose, even commercially,
# as long as you give appropriate credit and indicate if changes were made.

# Node Net
280   1
 16   2
341   3
385   4
  9   5
  3   6
 40   7
 12   8
386   9
