# This file is part of QOBLIB - Quantum Optimization Benchmarking Library
# Licensed under the Creative Commons Attribution 4.0 International License.
# You may obtain a copy of the License at
# 
#     https://creativecommons.org/licenses/by/4.0/
# 
# You are free to share and adapt the material for any purpose, even commercially,
# as long as you give appropriate credit and indicate if changes were made.

# Node Net
  5   1
120   2
383   3
 11   4
 16   5
395   6
 14   7
399   8
